% Logging successfully configured
%%%mzn-stat: initTime=0.007303176
%%%mzn-stat: objective=809
%%%mzn-stat: nodes=311
%%%mzn-stat: restarts=0
%%%mzn-stat: peakDepth=305
%%%mzn-stat: solveTime=0.004715679
%%%mzn-stat: variables=673
%%%mzn-stat: propagators=453
%%%mzn-stat: failures=2
%%%mzn-stat: propagations=1598
%%%mzn-stat: nogoods=2
%%%mzn-stat: numAtomicConstraintsPropagated=0
%%%mzn-stat: circuitNumber1PropagationsTotal=73
%%%mzn-stat: circuitNumber1CircuitConflicts=1
%%%mzn-stat: circuitNumber1AlldiffConflicts=0
%%%mzn-stat: circuitNumber1TotalFixedEdgesAtConflict=38
%%%mzn-stat: circuitNumber1NumberOfConflicts=1
%%%mzn-stat: circuitNumber1GacPrunings=216
%%%mzn-stat: circuitNumber1PropagationsThatGacPruned=37
%%%mzn-stat: circuitNumber1TotalPruningHallSetSize=1172
%%%mzn-stat: circuitNumber1NumberOfPruningExplanations=216
%%%mzn-stat: circuitNumber1MaxPruningHallSetSize=27
%%%mzn-stat: circuitNumber1TotalSccSizeAtPruning=235
%%%mzn-stat: circuitNumber1NumberOfSccPruningCalls=37
%%%mzn-stat: circuitNumber1TotalVarsInvolvedInPruning=159
%%%mzn-stat: circuitNumber1MaxValuesPrunedFromSingleVar=7
%%%mzn-stat: circuitNumber1HallCircuitChecks=159
%%%mzn-stat: circuitNumber1HallCircuitPrunings=3
%%%mzn-stat: circuitNumber1CircuitPreventPrunings=27
%%%mzn-stat: AverageConflictSize=3
%%%mzn-stat: NumUnitNogoodsLearned=0
%%%mzn-stat: AverageLearnedNogoodLength=16.5
%%%mzn-stat: AverageBacktrackAmount=0
%%%mzn-stat: AverageLbd=6
%%%mzn-stat: 2AutonomousSearchNumBackupCalled=279
%%%mzn-stat: 2AutonomousSearchNumPredicatesRemoved=0
%%%mzn-stat: 2AutonomousSearchNumCalls=280
%%%mzn-stat: 2AutonomousSearchNumPredicatesAdded=136
%%%mzn-stat: 2AutonomousSearchAverageSizeOfHeap=0.4857142857142857
%%%mzn-stat: 2AutonomousSearchNumAssignedPredicatesEncountered=136
%%%mzn-stat-end
maxleg = 809;
succ = array1d(1..50,[19, 9, 6, 5, 18, 8, 14, 7, 4, 15, 26, 2, 23, 49, 24, 34, 20, 25, 12, 21, 33, 29, 48, 45, 44, 35, 1, 10, 42, 11, 3, 17, 36, 22, 37, 28, 27, 32, 41, 38, 46, 13, 40, 39, 30, 16, 50, 47, 43, 31]);
% time elapsed: 0.91 s
----------
%%%mzn-stat: initTime=0.007303176
%%%mzn-stat: objective=685
%%%mzn-stat: nodes=720
%%%mzn-stat: restarts=0
%%%mzn-stat: peakDepth=312
%%%mzn-stat: solveTime=0.046649512
%%%mzn-stat: variables=673
%%%mzn-stat: propagators=453
%%%mzn-stat: failures=66
%%%mzn-stat: propagations=4526
%%%mzn-stat: nogoods=66
%%%mzn-stat: numAtomicConstraintsPropagated=0
%%%mzn-stat: circuitNumber1PropagationsTotal=549
%%%mzn-stat: circuitNumber1CircuitConflicts=56
%%%mzn-stat: circuitNumber1AlldiffConflicts=0
%%%mzn-stat: circuitNumber1TotalFixedEdgesAtConflict=2531
%%%mzn-stat: circuitNumber1NumberOfConflicts=56
%%%mzn-stat: circuitNumber1GacPrunings=963
%%%mzn-stat: circuitNumber1PropagationsThatGacPruned=276
%%%mzn-stat: circuitNumber1TotalPruningHallSetSize=3047
%%%mzn-stat: circuitNumber1NumberOfPruningExplanations=963
%%%mzn-stat: circuitNumber1MaxPruningHallSetSize=27
%%%mzn-stat: circuitNumber1TotalSccSizeAtPruning=989
%%%mzn-stat: circuitNumber1NumberOfSccPruningCalls=276
%%%mzn-stat: circuitNumber1TotalVarsInvolvedInPruning=784
%%%mzn-stat: circuitNumber1MaxValuesPrunedFromSingleVar=7
%%%mzn-stat: circuitNumber1HallCircuitChecks=1158
%%%mzn-stat: circuitNumber1HallCircuitPrunings=33
%%%mzn-stat: circuitNumber1CircuitPreventPrunings=216
%%%mzn-stat: AverageConflictSize=27.21212121212121
%%%mzn-stat: NumUnitNogoodsLearned=0
%%%mzn-stat: AverageLearnedNogoodLength=26.257575757575758
%%%mzn-stat: AverageBacktrackAmount=0
%%%mzn-stat: AverageLbd=15.015151515151516
%%%mzn-stat: 2AutonomousSearchNumBackupCalled=564
%%%mzn-stat: 2AutonomousSearchNumPredicatesRemoved=0
%%%mzn-stat: 2AutonomousSearchNumCalls=566
%%%mzn-stat: 2AutonomousSearchNumPredicatesAdded=1125
%%%mzn-stat: 2AutonomousSearchAverageSizeOfHeap=1.9876325088339222
%%%mzn-stat: 2AutonomousSearchNumAssignedPredicatesEncountered=1125
%%%mzn-stat-end
maxleg = 685;
succ = array1d(1..50,[19, 9, 6, 5, 18, 8, 14, 7, 4, 15, 26, 2, 23, 49, 24, 35, 20, 25, 29, 21, 33, 12, 48, 45, 44, 30, 1, 34, 42, 41, 3, 17, 36, 22, 11, 10, 27, 32, 16, 38, 46, 13, 40, 39, 28, 37, 50, 47, 43, 31]);
% time elapsed: 0.91 s
----------
%%%mzn-stat: initTime=0.007303176
%%%mzn-stat: objective=635
%%%mzn-stat: nodes=1634
%%%mzn-stat: restarts=0
%%%mzn-stat: peakDepth=312
%%%mzn-stat: solveTime=0.249076214
%%%mzn-stat: variables=673
%%%mzn-stat: propagators=453
%%%mzn-stat: failures=449
%%%mzn-stat: propagations=17296
%%%mzn-stat: nogoods=449
%%%mzn-stat: numAtomicConstraintsPropagated=0
%%%mzn-stat: circuitNumber1PropagationsTotal=2865
%%%mzn-stat: circuitNumber1CircuitConflicts=319
%%%mzn-stat: circuitNumber1AlldiffConflicts=0
%%%mzn-stat: circuitNumber1TotalFixedEdgesAtConflict=14486
%%%mzn-stat: circuitNumber1NumberOfConflicts=319
%%%mzn-stat: circuitNumber1GacPrunings=4430
%%%mzn-stat: circuitNumber1PropagationsThatGacPruned=1508
%%%mzn-stat: circuitNumber1TotalPruningHallSetSize=9967
%%%mzn-stat: circuitNumber1NumberOfPruningExplanations=4430
%%%mzn-stat: circuitNumber1MaxPruningHallSetSize=27
%%%mzn-stat: circuitNumber1TotalSccSizeAtPruning=4368
%%%mzn-stat: circuitNumber1NumberOfSccPruningCalls=1508
%%%mzn-stat: circuitNumber1TotalVarsInvolvedInPruning=3697
%%%mzn-stat: circuitNumber1MaxValuesPrunedFromSingleVar=7
%%%mzn-stat: circuitNumber1HallCircuitChecks=5974
%%%mzn-stat: circuitNumber1HallCircuitPrunings=118
%%%mzn-stat: circuitNumber1CircuitPreventPrunings=1144
%%%mzn-stat: AverageConflictSize=28.33184855233853
%%%mzn-stat: NumUnitNogoodsLearned=0
%%%mzn-stat: AverageLearnedNogoodLength=25.621380846325167
%%%mzn-stat: AverageBacktrackAmount=0
%%%mzn-stat: AverageLbd=13.534521158129175
%%%mzn-stat: 2AutonomousSearchNumBackupCalled=831
%%%mzn-stat: 2AutonomousSearchNumPredicatesRemoved=0
%%%mzn-stat: 2AutonomousSearchNumCalls=834
%%%mzn-stat: 2AutonomousSearchNumPredicatesAdded=2234
%%%mzn-stat: 2AutonomousSearchAverageSizeOfHeap=2.9016786570743407
%%%mzn-stat: 2AutonomousSearchNumAssignedPredicatesEncountered=2420
%%%mzn-stat-end
maxleg = 635;
succ = array1d(1..50,[19, 9, 6, 5, 18, 8, 14, 7, 4, 15, 26, 2, 23, 49, 34, 35, 20, 25, 29, 21, 33, 12, 48, 10, 44, 30, 1, 17, 42, 41, 3, 36, 24, 22, 11, 45, 27, 32, 16, 38, 46, 13, 40, 39, 28, 37, 50, 47, 43, 31]);
% time elapsed: 1.09 s
----------
%%%mzn-stat: initTime=0.007303176
%%%mzn-stat: objective=437
%%%mzn-stat: nodes=2389
%%%mzn-stat: restarts=0
%%%mzn-stat: peakDepth=312
%%%mzn-stat: solveTime=0.380165887
%%%mzn-stat: variables=673
%%%mzn-stat: propagators=453
%%%mzn-stat: failures=768
%%%mzn-stat: propagations=28298
%%%mzn-stat: nogoods=768
%%%mzn-stat: numAtomicConstraintsPropagated=0
%%%mzn-stat: circuitNumber1PropagationsTotal=4828
%%%mzn-stat: circuitNumber1CircuitConflicts=534
%%%mzn-stat: circuitNumber1AlldiffConflicts=0
%%%mzn-stat: circuitNumber1TotalFixedEdgesAtConflict=24079
%%%mzn-stat: circuitNumber1NumberOfConflicts=534
%%%mzn-stat: circuitNumber1GacPrunings=7028
%%%mzn-stat: circuitNumber1PropagationsThatGacPruned=2647
%%%mzn-stat: circuitNumber1TotalPruningHallSetSize=15063
%%%mzn-stat: circuitNumber1NumberOfPruningExplanations=7028
%%%mzn-stat: circuitNumber1MaxPruningHallSetSize=27
%%%mzn-stat: circuitNumber1TotalSccSizeAtPruning=7226
%%%mzn-stat: circuitNumber1NumberOfSccPruningCalls=2647
%%%mzn-stat: circuitNumber1TotalVarsInvolvedInPruning=5956
%%%mzn-stat: circuitNumber1MaxValuesPrunedFromSingleVar=7
%%%mzn-stat: circuitNumber1HallCircuitChecks=10375
%%%mzn-stat: circuitNumber1HallCircuitPrunings=153
%%%mzn-stat: circuitNumber1CircuitPreventPrunings=2156
%%%mzn-stat: AverageConflictSize=25.778645833333332
%%%mzn-stat: NumUnitNogoodsLearned=0
%%%mzn-stat: AverageLearnedNogoodLength=22.822916666666668
%%%mzn-stat: AverageBacktrackAmount=0
%%%mzn-stat: AverageLbd=14.229166666666666
%%%mzn-stat: 2AutonomousSearchNumBackupCalled=1108
%%%mzn-stat: 2AutonomousSearchNumPredicatesRemoved=0
%%%mzn-stat: 2AutonomousSearchNumCalls=1112
%%%mzn-stat: 2AutonomousSearchNumPredicatesAdded=3751
%%%mzn-stat: 2AutonomousSearchAverageSizeOfHeap=3.773381294964029
%%%mzn-stat: 2AutonomousSearchNumAssignedPredicatesEncountered=4196
%%%mzn-stat-end
maxleg = 437;
succ = array1d(1..50,[19, 9, 6, 5, 18, 8, 14, 7, 4, 15, 26, 2, 42, 33, 24, 34, 20, 25, 48, 21, 36, 12, 13, 32, 44, 30, 1, 10, 22, 35, 3, 38, 17, 37, 16, 45, 27, 40, 46, 43, 11, 29, 49, 39, 28, 41, 50, 47, 23, 31]);
% time elapsed: 1.22 s
----------
%%%mzn-stat: initTime=0.007303176
%%%mzn-stat: objective=437
%%%mzn-stat: nodes=2000571
%%%mzn-stat: restarts=0
%%%mzn-stat: peakDepth=312
%%%mzn-stat: solveTime=1799.178477451
%%%mzn-stat: variables=673
%%%mzn-stat: propagators=453
%%%mzn-stat: failures=1751087
%%%mzn-stat: propagations=73301542
%%%mzn-stat: nogoods=1751087
%%%mzn-stat: numAtomicConstraintsPropagated=0
%%%mzn-stat: circuitNumber1PropagationsTotal=11069431
%%%mzn-stat: circuitNumber1CircuitConflicts=1220886
%%%mzn-stat: circuitNumber1AlldiffConflicts=12328
%%%mzn-stat: circuitNumber1TotalFixedEdgesAtConflict=48133746
%%%mzn-stat: circuitNumber1NumberOfConflicts=1233214
%%%mzn-stat: circuitNumber1GacPrunings=25418069
%%%mzn-stat: circuitNumber1PropagationsThatGacPruned=6467151
%%%mzn-stat: circuitNumber1TotalPruningHallSetSize=93646067
%%%mzn-stat: circuitNumber1NumberOfPruningExplanations=25418069
%%%mzn-stat: circuitNumber1MaxPruningHallSetSize=33
%%%mzn-stat: circuitNumber1TotalSccSizeAtPruning=43872466
%%%mzn-stat: circuitNumber1NumberOfSccPruningCalls=6467151
%%%mzn-stat: circuitNumber1TotalVarsInvolvedInPruning=18972352
%%%mzn-stat: circuitNumber1MaxValuesPrunedFromSingleVar=7
%%%mzn-stat: circuitNumber1HallCircuitChecks=24175035
%%%mzn-stat: circuitNumber1HallCircuitPrunings=1105849
%%%mzn-stat: circuitNumber1CircuitPreventPrunings=5958671
%%%mzn-stat: AverageConflictSize=16.964858970456635
%%%mzn-stat: NumUnitNogoodsLearned=0
%%%mzn-stat: AverageLearnedNogoodLength=28.685589008427336
%%%mzn-stat: AverageBacktrackAmount=0
%%%mzn-stat: AverageLbd=19.364267452159716
%%%mzn-stat: 2AutonomousSearchNumBackupCalled=1108
%%%mzn-stat: 2AutonomousSearchNumPredicatesRemoved=0
%%%mzn-stat: 2AutonomousSearchNumCalls=1112
%%%mzn-stat: 2AutonomousSearchNumPredicatesAdded=6373
%%%mzn-stat: 2AutonomousSearchAverageSizeOfHeap=3.773381294964029
%%%mzn-stat: 2AutonomousSearchNumAssignedPredicatesEncountered=4196
%%%mzn-stat-end
